
  32    1
  10

   0   0   7 2 3 5 6 7 9 13 
  10   4   4 17 14 8 4 
   3   4   5 23 22 19 14 10 
   9   9   5 31 19 18 16 12 
   8   8   5 31 19 18 17 12 
   9   6   3 19 18 11 
   4  10   6 31 23 22 21 18 15 
   1   8   2 15 11 
   8   8   2 18 12 
   4   6   5 31 21 18 17 15 
   3   9   9 31 30 29 28 27 23 22 21 20 
   3   8   4 23 22 21 15 
   8   9   5 31 30 29 21 18 
   2   4   5 31 29 25 20 18 
  10   7   5 30 29 28 27 20 
   9   8   5 29 27 25 22 20 
  10   7   2 25 20 
   8   9   3 28 27 24 
  10  10   3 28 27 25 
   2  10   2 26 24 
   7   9   2 26 25 
   6   9   1 24 
   4  10   1 25 
   1  10   1 32
   3   8   1 32
   2   2   1 32
   3  10   1 32
   9   9   1 32
   5   9   1 32
   1  10   1 32
   2  10   1 32
   0   0   0 
